; Benchmark for LTL-sketching problem
(set-logic QF_UF)
(set-info :status unknown)
(declare-fun z_0_0 () Bool)
(declare-fun z_0_1 () Bool)
(declare-fun z_0_8 () Bool)
(declare-fun z_0_20 () Bool)
(declare-fun z_0_31 () Bool)
(declare-fun z_0_32 () Bool)
(declare-fun z_0_36 () Bool)
(declare-fun z_0_42 () Bool)
(declare-fun z_0_49 () Bool)
(declare-fun z_0_52 () Bool)
(declare-fun z_0_57 () Bool)
(declare-fun z_1_0 () Bool)
(declare-fun z_1_7 () Bool)
(declare-fun z_1_6 () Bool)
(declare-fun z_1_5 () Bool)
(declare-fun z_1_4 () Bool)
(declare-fun z_1_3 () Bool)
(declare-fun z_1_2 () Bool)
(declare-fun z_1_1 () Bool)
(declare-fun z_0_2 () Bool)
(declare-fun z_0_3 () Bool)
(declare-fun z_0_4 () Bool)
(declare-fun z_0_5 () Bool)
(declare-fun z_0_6 () Bool)
(declare-fun z_0_7 () Bool)
(declare-fun z_1_19 () Bool)
(declare-fun z_1_18 () Bool)
(declare-fun z_1_17 () Bool)
(declare-fun z_1_16 () Bool)
(declare-fun z_1_15 () Bool)
(declare-fun z_1_14 () Bool)
(declare-fun z_1_13 () Bool)
(declare-fun z_1_12 () Bool)
(declare-fun z_1_11 () Bool)
(declare-fun z_1_10 () Bool)
(declare-fun z_1_9 () Bool)
(declare-fun z_1_8 () Bool)
(declare-fun z_0_9 () Bool)
(declare-fun z_0_10 () Bool)
(declare-fun z_0_11 () Bool)
(declare-fun z_0_12 () Bool)
(declare-fun z_0_13 () Bool)
(declare-fun z_0_14 () Bool)
(declare-fun z_0_15 () Bool)
(declare-fun z_0_16 () Bool)
(declare-fun z_0_17 () Bool)
(declare-fun z_0_18 () Bool)
(declare-fun z_0_19 () Bool)
(declare-fun z_1_30 () Bool)
(declare-fun z_1_29 () Bool)
(declare-fun z_1_28 () Bool)
(declare-fun z_1_27 () Bool)
(declare-fun z_1_26 () Bool)
(declare-fun z_1_25 () Bool)
(declare-fun z_1_24 () Bool)
(declare-fun z_1_23 () Bool)
(declare-fun z_1_22 () Bool)
(declare-fun z_1_21 () Bool)
(declare-fun z_1_20 () Bool)
(declare-fun z_0_21 () Bool)
(declare-fun z_0_22 () Bool)
(declare-fun z_0_23 () Bool)
(declare-fun z_0_24 () Bool)
(declare-fun z_0_25 () Bool)
(declare-fun z_0_26 () Bool)
(declare-fun z_0_27 () Bool)
(declare-fun z_0_28 () Bool)
(declare-fun z_0_29 () Bool)
(declare-fun z_0_30 () Bool)
(declare-fun z_1_31 () Bool)
(declare-fun z_1_35 () Bool)
(declare-fun z_1_34 () Bool)
(declare-fun z_1_33 () Bool)
(declare-fun z_1_32 () Bool)
(declare-fun z_0_33 () Bool)
(declare-fun z_0_34 () Bool)
(declare-fun z_0_35 () Bool)
(declare-fun z_1_41 () Bool)
(declare-fun z_1_40 () Bool)
(declare-fun z_1_39 () Bool)
(declare-fun z_1_38 () Bool)
(declare-fun z_1_37 () Bool)
(declare-fun z_1_36 () Bool)
(declare-fun z_0_37 () Bool)
(declare-fun z_0_38 () Bool)
(declare-fun z_0_39 () Bool)
(declare-fun z_0_40 () Bool)
(declare-fun z_0_41 () Bool)
(declare-fun z_1_48 () Bool)
(declare-fun z_1_47 () Bool)
(declare-fun z_1_46 () Bool)
(declare-fun z_1_45 () Bool)
(declare-fun z_1_44 () Bool)
(declare-fun z_1_43 () Bool)
(declare-fun z_1_42 () Bool)
(declare-fun z_0_43 () Bool)
(declare-fun z_0_44 () Bool)
(declare-fun z_0_45 () Bool)
(declare-fun z_0_46 () Bool)
(declare-fun z_0_47 () Bool)
(declare-fun z_0_48 () Bool)
(declare-fun z_1_51 () Bool)
(declare-fun z_1_50 () Bool)
(declare-fun z_1_49 () Bool)
(declare-fun z_0_50 () Bool)
(declare-fun z_0_51 () Bool)
(declare-fun z_1_56 () Bool)
(declare-fun z_1_55 () Bool)
(declare-fun z_1_54 () Bool)
(declare-fun z_1_53 () Bool)
(declare-fun z_1_52 () Bool)
(declare-fun z_0_53 () Bool)
(declare-fun z_0_54 () Bool)
(declare-fun z_0_55 () Bool)
(declare-fun z_0_56 () Bool)
(declare-fun z_1_67 () Bool)
(declare-fun z_1_66 () Bool)
(declare-fun z_1_65 () Bool)
(declare-fun z_1_64 () Bool)
(declare-fun z_1_63 () Bool)
(declare-fun z_1_62 () Bool)
(declare-fun z_1_61 () Bool)
(declare-fun z_1_60 () Bool)
(declare-fun z_1_59 () Bool)
(declare-fun z_1_58 () Bool)
(declare-fun z_1_57 () Bool)
(declare-fun z_0_58 () Bool)
(declare-fun z_0_59 () Bool)
(declare-fun z_0_60 () Bool)
(declare-fun z_0_61 () Bool)
(declare-fun z_0_62 () Bool)
(declare-fun z_0_63 () Bool)
(declare-fun z_0_64 () Bool)
(declare-fun z_0_65 () Bool)
(declare-fun z_0_66 () Bool)
(declare-fun z_0_67 () Bool)
(declare-fun z_3_0 () Bool)
(declare-fun z_3_1 () Bool)
(declare-fun z_3_2 () Bool)
(declare-fun z_3_3 () Bool)
(declare-fun z_3_4 () Bool)
(declare-fun z_3_5 () Bool)
(declare-fun z_3_6 () Bool)
(declare-fun z_3_7 () Bool)
(declare-fun z_3_8 () Bool)
(declare-fun z_3_9 () Bool)
(declare-fun z_3_10 () Bool)
(declare-fun z_3_11 () Bool)
(declare-fun z_3_12 () Bool)
(declare-fun z_3_13 () Bool)
(declare-fun z_3_14 () Bool)
(declare-fun z_3_15 () Bool)
(declare-fun z_3_16 () Bool)
(declare-fun z_3_17 () Bool)
(declare-fun z_3_18 () Bool)
(declare-fun z_3_19 () Bool)
(declare-fun z_3_20 () Bool)
(declare-fun z_3_21 () Bool)
(declare-fun z_3_22 () Bool)
(declare-fun z_3_23 () Bool)
(declare-fun z_3_24 () Bool)
(declare-fun z_3_25 () Bool)
(declare-fun z_3_26 () Bool)
(declare-fun z_3_27 () Bool)
(declare-fun z_3_28 () Bool)
(declare-fun z_3_29 () Bool)
(declare-fun z_3_30 () Bool)
(declare-fun z_3_31 () Bool)
(declare-fun z_3_32 () Bool)
(declare-fun z_3_33 () Bool)
(declare-fun z_3_34 () Bool)
(declare-fun z_3_35 () Bool)
(declare-fun z_3_36 () Bool)
(declare-fun z_3_37 () Bool)
(declare-fun z_3_38 () Bool)
(declare-fun z_3_39 () Bool)
(declare-fun z_3_40 () Bool)
(declare-fun z_3_41 () Bool)
(declare-fun z_3_42 () Bool)
(declare-fun z_3_43 () Bool)
(declare-fun z_3_44 () Bool)
(declare-fun z_3_45 () Bool)
(declare-fun z_3_46 () Bool)
(declare-fun z_3_47 () Bool)
(declare-fun z_3_48 () Bool)
(declare-fun z_3_49 () Bool)
(declare-fun z_3_50 () Bool)
(declare-fun z_3_51 () Bool)
(declare-fun z_3_52 () Bool)
(declare-fun z_3_53 () Bool)
(declare-fun z_3_54 () Bool)
(declare-fun z_3_55 () Bool)
(declare-fun z_3_56 () Bool)
(declare-fun z_3_57 () Bool)
(declare-fun z_3_58 () Bool)
(declare-fun z_3_59 () Bool)
(declare-fun z_3_60 () Bool)
(declare-fun z_3_61 () Bool)
(declare-fun z_3_62 () Bool)
(declare-fun z_3_63 () Bool)
(declare-fun z_3_64 () Bool)
(declare-fun z_3_65 () Bool)
(declare-fun z_3_66 () Bool)
(declare-fun z_3_67 () Bool)
(declare-fun x_3_p () Bool)
(declare-fun x_3_-> () Bool)
(declare-fun x_3_U () Bool)
(declare-fun x_3_v () Bool)
(declare-fun x_3_& () Bool)
(declare-fun x_3_X () Bool)
(declare-fun x_3_! () Bool)
(declare-fun x_3_F () Bool)
(declare-fun x_3_G () Bool)
(assert
 z_0_0)
(assert
 (not z_0_1))
(assert
 (not z_0_8))
(assert
 (not z_0_20))
(assert
 (not z_0_31))
(assert
 (not z_0_32))
(assert
 (not z_0_36))
(assert
 (not z_0_42))
(assert
 (not z_0_49))
(assert
 (not z_0_52))
(assert
 (not z_0_57))
(assert
 (= z_0_0 (and z_1_0)))
(assert
 (= z_0_1 (and z_1_1 z_1_2 z_1_3 z_1_4 z_1_5 z_1_6 z_1_7)))
(assert
 (= z_0_2 (and z_1_2 z_1_3 z_1_4 z_1_5 z_1_6 z_1_7)))
(assert
 (= z_0_3 (and z_1_3 z_1_4 z_1_5 z_1_6 z_1_7)))
(assert
 (= z_0_4 (and z_1_4 z_1_5 z_1_6 z_1_7 z_1_3)))
(assert
 (= z_0_5 (and z_1_5 z_1_6 z_1_7 z_1_3 z_1_4)))
(assert
 (= z_0_6 (and z_1_6 z_1_7 z_1_3 z_1_4 z_1_5)))
(assert
 (= z_0_7 (and z_1_7 z_1_3 z_1_4 z_1_5 z_1_6)))
(assert
 (let (($x69 (and z_1_8 z_1_9 z_1_10 z_1_11 z_1_12 z_1_13 z_1_14 z_1_15 z_1_16 z_1_17 z_1_18 z_1_19)))
 (= z_0_8 $x69)))
(assert
 (let (($x72 (and z_1_9 z_1_10 z_1_11 z_1_12 z_1_13 z_1_14 z_1_15 z_1_16 z_1_17 z_1_18 z_1_19)))
 (= z_0_9 $x72)))
(assert
 (let (($x75 (and z_1_10 z_1_11 z_1_12 z_1_13 z_1_14 z_1_15 z_1_16 z_1_17 z_1_18 z_1_19)))
 (= z_0_10 $x75)))
(assert
 (let (($x78 (and z_1_11 z_1_12 z_1_13 z_1_14 z_1_15 z_1_16 z_1_17 z_1_18 z_1_19)))
 (= z_0_11 $x78)))
(assert
 (let (($x81 (and z_1_12 z_1_13 z_1_14 z_1_15 z_1_16 z_1_17 z_1_18 z_1_19)))
 (= z_0_12 $x81)))
(assert
 (= z_0_13 (and z_1_13 z_1_14 z_1_15 z_1_16 z_1_17 z_1_18 z_1_19)))
(assert
 (= z_0_14 (and z_1_14 z_1_15 z_1_16 z_1_17 z_1_18 z_1_19)))
(assert
 (= z_0_15 (and z_1_15 z_1_16 z_1_17 z_1_18 z_1_19 z_1_14)))
(assert
 (= z_0_16 (and z_1_16 z_1_17 z_1_18 z_1_19 z_1_14 z_1_15)))
(assert
 (= z_0_17 (and z_1_17 z_1_18 z_1_19 z_1_14 z_1_15 z_1_16)))
(assert
 (= z_0_18 (and z_1_18 z_1_19 z_1_14 z_1_15 z_1_16 z_1_17)))
(assert
 (= z_0_19 (and z_1_19 z_1_14 z_1_15 z_1_16 z_1_17 z_1_18)))
(assert
 (let (($x116 (and z_1_20 z_1_21 z_1_22 z_1_23 z_1_24 z_1_25 z_1_26 z_1_27 z_1_28 z_1_29 z_1_30)))
 (= z_0_20 $x116)))
(assert
 (let (($x119 (and z_1_21 z_1_22 z_1_23 z_1_24 z_1_25 z_1_26 z_1_27 z_1_28 z_1_29 z_1_30)))
 (= z_0_21 $x119)))
(assert
 (let (($x122 (and z_1_22 z_1_23 z_1_24 z_1_25 z_1_26 z_1_27 z_1_28 z_1_29 z_1_30)))
 (= z_0_22 $x122)))
(assert
 (let (($x125 (and z_1_23 z_1_24 z_1_25 z_1_26 z_1_27 z_1_28 z_1_29 z_1_30)))
 (= z_0_23 $x125)))
(assert
 (= z_0_24 (and z_1_24 z_1_25 z_1_26 z_1_27 z_1_28 z_1_29 z_1_30)))
(assert
 (= z_0_25 (and z_1_25 z_1_26 z_1_27 z_1_28 z_1_29 z_1_30)))
(assert
 (= z_0_26 (and z_1_26 z_1_27 z_1_28 z_1_29 z_1_30)))
(assert
 (= z_0_27 (and z_1_27 z_1_28 z_1_29 z_1_30 z_1_26)))
(assert
 (= z_0_28 (and z_1_28 z_1_29 z_1_30 z_1_26 z_1_27)))
(assert
 (= z_0_29 (and z_1_29 z_1_30 z_1_26 z_1_27 z_1_28)))
(assert
 (= z_0_30 (and z_1_30 z_1_26 z_1_27 z_1_28 z_1_29)))
(assert
 (= z_0_31 (and z_1_31 z_1_1 z_1_2 z_1_3 z_1_4 z_1_5 z_1_6 z_1_7)))
(assert
 (let (($x157 (and z_1_32 z_1_33 z_1_34 z_1_35 z_1_6 z_1_7 z_1_3 z_1_4 z_1_5)))
 (= z_0_32 $x157)))
(assert
 (let (($x160 (and z_1_33 z_1_34 z_1_35 z_1_6 z_1_7 z_1_3 z_1_4 z_1_5)))
 (= z_0_33 $x160)))
(assert
 (= z_0_34 (and z_1_34 z_1_35 z_1_6 z_1_7 z_1_3 z_1_4 z_1_5)))
(assert
 (= z_0_35 (and z_1_35 z_1_6 z_1_7 z_1_3 z_1_4 z_1_5)))
(assert
 (= z_0_36 (and z_1_36 z_1_37 z_1_38 z_1_39 z_1_40 z_1_41)))
(assert
 (= z_0_37 (and z_1_37 z_1_38 z_1_39 z_1_40 z_1_41)))
(assert
 (= z_0_38 (and z_1_38 z_1_39 z_1_40 z_1_41 z_1_37)))
(assert
 (= z_0_39 (and z_1_39 z_1_40 z_1_41 z_1_37 z_1_38)))
(assert
 (= z_0_40 (and z_1_40 z_1_41 z_1_37 z_1_38 z_1_39)))
(assert
 (= z_0_41 (and z_1_41 z_1_37 z_1_38 z_1_39 z_1_40)))
(assert
 (= z_0_42 (and z_1_42 z_1_43 z_1_44 z_1_45 z_1_46 z_1_47 z_1_48)))
(assert
 (= z_0_43 (and z_1_43 z_1_44 z_1_45 z_1_46 z_1_47 z_1_48)))
(assert
 (= z_0_44 (and z_1_44 z_1_45 z_1_46 z_1_47 z_1_48)))
(assert
 (= z_0_45 (and z_1_45 z_1_46 z_1_47 z_1_48)))
(assert
 (= z_0_46 (and z_1_46 z_1_47 z_1_48 z_1_45)))
(assert
 (= z_0_47 (and z_1_47 z_1_48 z_1_45 z_1_46)))
(assert
 (= z_0_48 (and z_1_48 z_1_45 z_1_46 z_1_47)))
(assert
 (= z_0_49 (and z_1_49 z_1_50 z_1_51 z_1_46 z_1_47 z_1_48 z_1_45)))
(assert
 (= z_0_50 (and z_1_50 z_1_51 z_1_46 z_1_47 z_1_48 z_1_45)))
(assert
 (= z_0_51 (and z_1_51 z_1_46 z_1_47 z_1_48 z_1_45)))
(assert
 (let (($x238 (and z_1_52 z_1_53 z_1_54 z_1_55 z_1_56 z_1_47 z_1_48 z_1_45 z_1_46)))
 (= z_0_52 $x238)))
(assert
 (let (($x241 (and z_1_53 z_1_54 z_1_55 z_1_56 z_1_47 z_1_48 z_1_45 z_1_46)))
 (= z_0_53 $x241)))
(assert
 (= z_0_54 (and z_1_54 z_1_55 z_1_56 z_1_47 z_1_48 z_1_45 z_1_46)))
(assert
 (= z_0_55 (and z_1_55 z_1_56 z_1_47 z_1_48 z_1_45 z_1_46)))
(assert
 (= z_0_56 (and z_1_56 z_1_47 z_1_48 z_1_45 z_1_46)))
(assert
 (let (($x264 (and z_1_57 z_1_58 z_1_59 z_1_60 z_1_61 z_1_62 z_1_63 z_1_64 z_1_65 z_1_66 z_1_67)))
 (= z_0_57 $x264)))
(assert
 (let (($x267 (and z_1_58 z_1_59 z_1_60 z_1_61 z_1_62 z_1_63 z_1_64 z_1_65 z_1_66 z_1_67)))
 (= z_0_58 $x267)))
(assert
 (let (($x270 (and z_1_59 z_1_60 z_1_61 z_1_62 z_1_63 z_1_64 z_1_65 z_1_66 z_1_67)))
 (= z_0_59 $x270)))
(assert
 (let (($x273 (and z_1_60 z_1_61 z_1_62 z_1_63 z_1_64 z_1_65 z_1_66 z_1_67)))
 (= z_0_60 $x273)))
(assert
 (= z_0_61 (and z_1_61 z_1_62 z_1_63 z_1_64 z_1_65 z_1_66 z_1_67)))
(assert
 (= z_0_62 (and z_1_62 z_1_63 z_1_64 z_1_65 z_1_66 z_1_67)))
(assert
 (= z_0_63 (and z_1_63 z_1_64 z_1_65 z_1_66 z_1_67 z_1_62)))
(assert
 (= z_0_64 (and z_1_64 z_1_65 z_1_66 z_1_67 z_1_62 z_1_63)))
(assert
 (= z_0_65 (and z_1_65 z_1_66 z_1_67 z_1_62 z_1_63 z_1_64)))
(assert
 (= z_0_66 (and z_1_66 z_1_67 z_1_62 z_1_63 z_1_64 z_1_65)))
(assert
 (= z_0_67 (and z_1_67 z_1_62 z_1_63 z_1_64 z_1_65 z_1_66)))
(assert
 (let (($x2199 (not z_3_0)))
 (= z_1_0 $x2199)))
(assert
 (= z_1_1 (not z_3_1)))
(assert
 (= z_1_2 (not z_3_2)))
(assert
 (let (($x2214 (not z_3_3)))
 (= z_1_3 $x2214)))
(assert
 (let (($x2219 (not z_3_4)))
 (= z_1_4 $x2219)))
(assert
 (let (($x2224 (not z_3_5)))
 (= z_1_5 $x2224)))
(assert
 (= z_1_6 (not z_3_6)))
(assert
 (let (($x2234 (not z_3_7)))
 (= z_1_7 $x2234)))
(assert
 (let (($x2239 (not z_3_8)))
 (= z_1_8 $x2239)))
(assert
 (let (($x2244 (not z_3_9)))
 (= z_1_9 $x2244)))
(assert
 (= z_1_10 (not z_3_10)))
(assert
 (= z_1_11 (not z_3_11)))
(assert
 (let (($x2259 (not z_3_12)))
 (= z_1_12 $x2259)))
(assert
 (= z_1_13 (not z_3_13)))
(assert
 (= z_1_14 (not z_3_14)))
(assert
 (let (($x2274 (not z_3_15)))
 (= z_1_15 $x2274)))
(assert
 (= z_1_16 (not z_3_16)))
(assert
 (= z_1_17 (not z_3_17)))
(assert
 (let (($x2289 (not z_3_18)))
 (= z_1_18 $x2289)))
(assert
 (let (($x2294 (not z_3_19)))
 (= z_1_19 $x2294)))
(assert
 (let (($x2299 (not z_3_20)))
 (= z_1_20 $x2299)))
(assert
 (let (($x2304 (not z_3_21)))
 (= z_1_21 $x2304)))
(assert
 (= z_1_22 (not z_3_22)))
(assert
 (let (($x2314 (not z_3_23)))
 (= z_1_23 $x2314)))
(assert
 (let (($x2319 (not z_3_24)))
 (= z_1_24 $x2319)))
(assert
 (= z_1_25 (not z_3_25)))
(assert
 (= z_1_26 (not z_3_26)))
(assert
 (let (($x2334 (not z_3_27)))
 (= z_1_27 $x2334)))
(assert
 (= z_1_28 (not z_3_28)))
(assert
 (let (($x2344 (not z_3_29)))
 (= z_1_29 $x2344)))
(assert
 (let (($x2349 (not z_3_30)))
 (= z_1_30 $x2349)))
(assert
 (= z_1_31 (not z_3_31)))
(assert
 (let (($x2359 (not z_3_32)))
 (= z_1_32 $x2359)))
(assert
 (let (($x2364 (not z_3_33)))
 (= z_1_33 $x2364)))
(assert
 (= z_1_34 (not z_3_34)))
(assert
 (= z_1_35 (not z_3_35)))
(assert
 (= z_1_36 (not z_3_36)))
(assert
 (= z_1_37 (not z_3_37)))
(assert
 (= z_1_38 (not z_3_38)))
(assert
 (= z_1_39 (not z_3_39)))
(assert
 (= z_1_40 (not z_3_40)))
(assert
 (let (($x2404 (not z_3_41)))
 (= z_1_41 $x2404)))
(assert
 (= z_1_42 (not z_3_42)))
(assert
 (let (($x2414 (not z_3_43)))
 (= z_1_43 $x2414)))
(assert
 (= z_1_44 (not z_3_44)))
(assert
 (let (($x2424 (not z_3_45)))
 (= z_1_45 $x2424)))
(assert
 (= z_1_46 (not z_3_46)))
(assert
 (= z_1_47 (not z_3_47)))
(assert
 (let (($x2439 (not z_3_48)))
 (= z_1_48 $x2439)))
(assert
 (= z_1_49 (not z_3_49)))
(assert
 (= z_1_50 (not z_3_50)))
(assert
 (= z_1_51 (not z_3_51)))
(assert
 (= z_1_52 (not z_3_52)))
(assert
 (= z_1_53 (not z_3_53)))
(assert
 (= z_1_54 (not z_3_54)))
(assert
 (= z_1_55 (not z_3_55)))
(assert
 (let (($x2479 (not z_3_56)))
 (= z_1_56 $x2479)))
(assert
 (= z_1_57 (not z_3_57)))
(assert
 (= z_1_58 (not z_3_58)))
(assert
 (= z_1_59 (not z_3_59)))
(assert
 (= z_1_60 (not z_3_60)))
(assert
 (let (($x2504 (not z_3_61)))
 (= z_1_61 $x2504)))
(assert
 (let (($x2509 (not z_3_62)))
 (= z_1_62 $x2509)))
(assert
 (= z_1_63 (not z_3_63)))
(assert
 (let (($x2519 (not z_3_64)))
 (= z_1_64 $x2519)))
(assert
 (= z_1_65 (not z_3_65)))
(assert
 (= z_1_66 (not z_3_66)))
(assert
 (= z_1_67 (not z_3_67)))
(assert
 (and true true))
(assert
 (let (($x2199 (not z_3_0)))
 (=> x_3_p $x2199)))
(assert
 (=> x_3_p z_3_1))
(assert
 (=> x_3_p z_3_2))
(assert
 (let (($x2214 (not z_3_3)))
 (=> x_3_p $x2214)))
(assert
 (let (($x2219 (not z_3_4)))
 (=> x_3_p $x2219)))
(assert
 (let (($x2224 (not z_3_5)))
 (=> x_3_p $x2224)))
(assert
 (=> x_3_p z_3_6))
(assert
 (let (($x2234 (not z_3_7)))
 (=> x_3_p $x2234)))
(assert
 (let (($x2239 (not z_3_8)))
 (=> x_3_p $x2239)))
(assert
 (let (($x2244 (not z_3_9)))
 (=> x_3_p $x2244)))
(assert
 (=> x_3_p z_3_10))
(assert
 (=> x_3_p z_3_11))
(assert
 (let (($x2259 (not z_3_12)))
 (=> x_3_p $x2259)))
(assert
 (=> x_3_p z_3_13))
(assert
 (=> x_3_p z_3_14))
(assert
 (let (($x2274 (not z_3_15)))
 (=> x_3_p $x2274)))
(assert
 (=> x_3_p z_3_16))
(assert
 (=> x_3_p z_3_17))
(assert
 (let (($x2289 (not z_3_18)))
 (=> x_3_p $x2289)))
(assert
 (let (($x2294 (not z_3_19)))
 (=> x_3_p $x2294)))
(assert
 (let (($x2299 (not z_3_20)))
 (=> x_3_p $x2299)))
(assert
 (let (($x2304 (not z_3_21)))
 (=> x_3_p $x2304)))
(assert
 (=> x_3_p z_3_22))
(assert
 (let (($x2314 (not z_3_23)))
 (=> x_3_p $x2314)))
(assert
 (let (($x2319 (not z_3_24)))
 (=> x_3_p $x2319)))
(assert
 (=> x_3_p z_3_25))
(assert
 (=> x_3_p z_3_26))
(assert
 (let (($x2334 (not z_3_27)))
 (=> x_3_p $x2334)))
(assert
 (=> x_3_p z_3_28))
(assert
 (let (($x2344 (not z_3_29)))
 (=> x_3_p $x2344)))
(assert
 (let (($x2349 (not z_3_30)))
 (=> x_3_p $x2349)))
(assert
 (=> x_3_p z_3_31))
(assert
 (let (($x2359 (not z_3_32)))
 (=> x_3_p $x2359)))
(assert
 (let (($x2364 (not z_3_33)))
 (=> x_3_p $x2364)))
(assert
 (=> x_3_p z_3_34))
(assert
 (=> x_3_p z_3_35))
(assert
 (=> x_3_p z_3_36))
(assert
 (=> x_3_p z_3_37))
(assert
 (=> x_3_p z_3_38))
(assert
 (=> x_3_p z_3_39))
(assert
 (=> x_3_p z_3_40))
(assert
 (let (($x2404 (not z_3_41)))
 (=> x_3_p $x2404)))
(assert
 (=> x_3_p z_3_42))
(assert
 (let (($x2414 (not z_3_43)))
 (=> x_3_p $x2414)))
(assert
 (=> x_3_p z_3_44))
(assert
 (let (($x2424 (not z_3_45)))
 (=> x_3_p $x2424)))
(assert
 (=> x_3_p z_3_46))
(assert
 (=> x_3_p z_3_47))
(assert
 (let (($x2439 (not z_3_48)))
 (=> x_3_p $x2439)))
(assert
 (=> x_3_p z_3_49))
(assert
 (=> x_3_p z_3_50))
(assert
 (=> x_3_p z_3_51))
(assert
 (=> x_3_p z_3_52))
(assert
 (=> x_3_p z_3_53))
(assert
 (=> x_3_p z_3_54))
(assert
 (=> x_3_p z_3_55))
(assert
 (let (($x2479 (not z_3_56)))
 (=> x_3_p $x2479)))
(assert
 (=> x_3_p z_3_57))
(assert
 (=> x_3_p z_3_58))
(assert
 (=> x_3_p z_3_59))
(assert
 (=> x_3_p z_3_60))
(assert
 (let (($x2504 (not z_3_61)))
 (=> x_3_p $x2504)))
(assert
 (let (($x2509 (not z_3_62)))
 (=> x_3_p $x2509)))
(assert
 (=> x_3_p z_3_63))
(assert
 (let (($x2519 (not z_3_64)))
 (=> x_3_p $x2519)))
(assert
 (=> x_3_p z_3_65))
(assert
 (=> x_3_p z_3_66))
(assert
 (=> x_3_p z_3_67))
(assert
 (or x_3_p))
(assert
 (let (($x2556 (not x_3_->)))
 (let (($x2554 (not x_3_U)))
 (let (($x2552 (not x_3_v)))
 (let (($x2550 (not x_3_&)))
 (let (($x2548 (not x_3_X)))
 (let (($x2546 (not x_3_!)))
 (let (($x2544 (not x_3_F)))
 (let (($x2542 (not x_3_G)))
 (and $x2542 $x2544 $x2546 $x2548 $x2550 $x2552 $x2554 $x2556))))))))))
(check-sat)

